100 4
0 0 0 1.7
0 25 42.5 3.4
0 50 127.5 1.1
0 75 155 0.8
1 0 0 1.7
1 25 42.5 3.4
1 50 127.5 1.1
1 75 155 0.8
2 0 0 1.7
2 25 42.5 3.4
2 50 127.5 1.1
2 75 155 0.8
3 0 0 1.7
3 25 42.5 3.4
3 50 127.5 1.1
3 75 155 0.8
4 0 0 1.7
4 25 42.5 3.4
4 50 127.5 1.1
4 75 155 0.8
5 0 0 1.7
5 25 42.5 3.4
5 50 127.5 1.1
5 75 155 0.8
6 0 0 1.7
6 25 42.5 3.4
6 50 127.5 1.1
6 75 155 0.8
7 0 0 1.7
7 25 42.5 3.4
7 50 127.5 1.1
7 75 155 0.8
8 0 0 1.7
8 25 42.5 3.4
8 50 127.5 1.1
8 75 155 0.8
9 0 0 1.7
9 25 42.5 3.4
9 50 127.5 1.1
9 75 155 0.8
10 0 0 1.7
10 25 42.5 3.4
10 50 127.5 1.1
10 75 155 0.8
11 0 0 1.7
11 25 42.5 3.4
11 50 127.5 1.1
11 75 155 0.8
12 0 0 1.7
12 25 42.5 3.4
12 50 127.5 1.1
12 75 155 0.8
13 0 0 1.7
13 25 42.5 3.4
13 50 127.5 1.1
13 75 155 0.8
14 0 0 1.7
14 25 42.5 3.4
14 50 127.5 1.1
14 75 155 0.8
15 0 0 1.7
15 25 42.5 3.4
15 50 127.5 1.1
15 75 155 0.8
16 0 0 1.7
16 25 42.5 3.4
16 50 127.5 1.1
16 75 155 0.8
17 0 0 1.7
17 25 42.5 3.4
17 50 127.5 1.1
17 75 155 0.8
18 0 0 1.7
18 25 42.5 3.4
18 50 127.5 1.1
18 75 155 0.8
19 0 0 1.7
19 25 42.5 3.4
19 50 127.5 1.1
19 75 155 0.8
20 0 0 1.7
20 25 42.5 3.4
20 50 127.5 1.1
20 75 155 0.8
21 0 0 1.7
21 25 42.5 3.4
21 50 127.5 1.1
21 75 155 0.8
22 0 0 1.7
22 25 42.5 3.4
22 50 127.5 1.1
22 75 155 0.8
23 0 0 1.7
23 25 42.5 3.4
23 50 127.5 1.1
23 75 155 0.8
24 0 0 1.7
24 25 42.5 3.4
24 50 127.5 1.1
24 75 155 0.8
25 0 0 1.7
25 25 42.5 3.4
25 50 127.5 1.1
25 75 155 0.8
26 0 0 1.7
26 25 42.5 3.4
26 50 127.5 1.1
26 75 155 0.8
27 0 0 1.7
27 25 42.5 3.4
27 50 127.5 1.1
27 75 155 0.8
28 0 0 1.7
28 25 42.5 3.4
28 50 127.5 1.1
28 75 155 0.8
29 0 0 1.7
29 25 42.5 3.4
29 50 127.5 1.1
29 75 155 0.8
30 0 0 1.7
30 25 42.5 3.4
30 50 127.5 1.1
30 75 155 0.8
31 0 0 1.7
31 25 42.5 3.4
31 50 127.5 1.1
31 75 155 0.8
32 0 0 1.7
32 25 42.5 3.4
32 50 127.5 1.1
32 75 155 0.8
33 0 0 1.7
33 25 42.5 3.4
33 50 127.5 1.1
33 75 155 0.8
34 0 0 1.7
34 25 42.5 3.4
34 50 127.5 1.1
34 75 155 0.8
35 0 0 1.7
35 25 42.5 3.4
35 50 127.5 1.1
35 75 155 0.8
36 0 0 1.7
36 25 42.5 3.4
36 50 127.5 1.1
36 75 155 0.8
37 0 0 1.7
37 25 42.5 3.4
37 50 127.5 1.1
37 75 155 0.8
38 0 0 1.7
38 25 42.5 3.4
38 50 127.5 1.1
38 75 155 0.8
39 0 0 1.7
39 25 42.5 3.4
39 50 127.5 1.1
39 75 155 0.8
40 0 0 1.7
40 25 42.5 3.4
40 50 127.5 1.1
40 75 155 0.8
41 0 0 1.7
41 25 42.5 3.4
41 50 127.5 1.1
41 75 155 0.8
42 0 0 1.7
42 25 42.5 3.4
42 50 127.5 1.1
42 75 155 0.8
43 0 0 1.7
43 25 42.5 3.4
43 50 127.5 1.1
43 75 155 0.8
44 0 0 1.7
44 25 42.5 3.4
44 50 127.5 1.1
44 75 155 0.8
45 0 0 1.7
45 25 42.5 3.4
45 50 127.5 1.1
45 75 155 0.8
46 0 0 1.7
46 25 42.5 3.4
46 50 127.5 1.1
46 75 155 0.8
47 0 0 1.7
47 25 42.5 3.4
47 50 127.5 1.1
47 75 155 0.8
48 0 0 1.7
48 25 42.5 3.4
48 50 127.5 1.1
48 75 155 0.8
49 0 0 1.7
49 25 42.5 3.4
49 50 127.5 1.1
49 75 155 0.8
50 0 0 1.7
50 25 42.5 3.4
50 50 127.5 1.1
50 75 155 0.8
51 0 0 1.7
51 25 42.5 3.4
51 50 127.5 1.1
51 75 155 0.8
52 0 0 1.7
52 25 42.5 3.4
52 50 127.5 1.1
52 75 155 0.8
53 0 0 1.7
53 25 42.5 3.4
53 50 127.5 1.1
53 75 155 0.8
54 0 0 1.7
54 25 42.5 3.4
54 50 127.5 1.1
54 75 155 0.8
55 0 0 1.7
55 25 42.5 3.4
55 50 127.5 1.1
55 75 155 0.8
56 0 0 1.7
56 25 42.5 3.4
56 50 127.5 1.1
56 75 155 0.8
57 0 0 1.7
57 25 42.5 3.4
57 50 127.5 1.1
57 75 155 0.8
58 0 0 1.7
58 25 42.5 3.4
58 50 127.5 1.1
58 75 155 0.8
59 0 0 1.7
59 25 42.5 3.4
59 50 127.5 1.1
59 75 155 0.8
60 0 0 1.7
60 25 42.5 3.4
60 50 127.5 1.1
60 75 155 0.8
61 0 0 1.7
61 25 42.5 3.4
61 50 127.5 1.1
61 75 155 0.8
62 0 0 1.7
62 25 42.5 3.4
62 50 127.5 1.1
62 75 155 0.8
63 0 0 1.7
63 25 42.5 3.4
63 50 127.5 1.1
63 75 155 0.8
64 0 0 1.7
64 25 42.5 3.4
64 50 127.5 1.1
64 75 155 0.8
65 0 0 1.7
65 25 42.5 3.4
65 50 127.5 1.1
65 75 155 0.8
66 0 0 1.7
66 25 42.5 3.4
66 50 127.5 1.1
66 75 155 0.8
67 0 0 1.7
67 25 42.5 3.4
67 50 127.5 1.1
67 75 155 0.8
68 0 0 1.7
68 25 42.5 3.4
68 50 127.5 1.1
68 75 155 0.8
69 0 0 1.7
69 25 42.5 3.4
69 50 127.5 1.1
69 75 155 0.8
70 0 0 1.7
70 25 42.5 3.4
70 50 127.5 1.1
70 75 155 0.8
71 0 0 1.7
71 25 42.5 3.4
71 50 127.5 1.1
71 75 155 0.8
72 0 0 1.7
72 25 42.5 3.4
72 50 127.5 1.1
72 75 155 0.8
73 0 0 1.7
73 25 42.5 3.4
73 50 127.5 1.1
73 75 155 0.8
74 0 0 1.7
74 25 42.5 3.4
74 50 127.5 1.1
74 75 155 0.8
75 0 0 1.7
75 25 42.5 3.4
75 50 127.5 1.1
75 75 155 0.8
76 0 0 1.7
76 25 42.5 3.4
76 50 127.5 1.1
76 75 155 0.8
77 0 0 1.7
77 25 42.5 3.4
77 50 127.5 1.1
77 75 155 0.8
78 0 0 1.7
78 25 42.5 3.4
78 50 127.5 1.1
78 75 155 0.8
79 0 0 1.7
79 25 42.5 3.4
79 50 127.5 1.1
79 75 155 0.8
80 0 0 1.7
80 25 42.5 3.4
80 50 127.5 1.1
80 75 155 0.8
81 0 0 1.7
81 25 42.5 3.4
81 50 127.5 1.1
81 75 155 0.8
82 0 0 1.7
82 25 42.5 3.4
82 50 127.5 1.1
82 75 155 0.8
83 0 0 1.7
83 25 42.5 3.4
83 50 127.5 1.1
83 75 155 0.8
84 0 0 1.7
84 25 42.5 3.4
84 50 127.5 1.1
84 75 155 0.8
85 0 0 1.7
85 25 42.5 3.4
85 50 127.5 1.1
85 75 155 0.8
86 0 0 1.7
86 25 42.5 3.4
86 50 127.5 1.1
86 75 155 0.8
87 0 0 1.7
87 25 42.5 3.4
87 50 127.5 1.1
87 75 155 0.8
88 0 0 1.7
88 25 42.5 3.4
88 50 127.5 1.1
88 75 155 0.8
89 0 0 1.7
89 25 42.5 3.4
89 50 127.5 1.1
89 75 155 0.8
90 0 0 1.7
90 25 42.5 3.4
90 50 127.5 1.1
90 75 155 0.8
91 0 0 1.7
91 25 42.5 3.4
91 50 127.5 1.1
91 75 155 0.8
92 0 0 1.7
92 25 42.5 3.4
92 50 127.5 1.1
92 75 155 0.8
93 0 0 1.7
93 25 42.5 3.4
93 50 127.5 1.1
93 75 155 0.8
94 0 0 1.7
94 25 42.5 3.4
94 50 127.5 1.1
94 75 155 0.8
95 0 0 1.7
95 25 42.5 3.4
95 50 127.5 1.1
95 75 155 0.8
96 0 0 1.7
96 25 42.5 3.4
96 50 127.5 1.1
96 75 155 0.8
97 0 0 1.7
97 25 42.5 3.4
97 50 127.5 1.1
97 75 155 0.8
98 0 0 1.7
98 25 42.5 3.4
98 50 127.5 1.1
98 75 155 0.8
99 0 0 1.7
99 25 42.5 3.4
99 50 127.5 1.1
99 75 155 0.8
